c A comment line starts with "c"

c The problem line is: "p" "cnf" $numVars $numClauses
p cnf 2 3

c Weight format: MINIC2D
c The weight line is a special comment line: "c" "weights" $weight(x1) $weight(-x1) $weight(x2) $weight(-x2)
c weights 1 1.1 2 2.2

c A clause line contains literals and ends with "0"

c A clause line with positive literal x1
1 0

c A clause line with negative literal -x2
-2 0

c A clause line with disjunction x1 \/ -x2
1 -2 0
